robust/generate/spp_dkp_Lefebvre_et_al_2026/src/shortest_path_4_8.kp
50
100

[4.95 2.28 2.55 3.96 3.77 9.97 4.08 7.72 7.61 3.1]

[88 86 100 35 74 76 79 36 76 78]
